50 250
34 9
30 8
26 7
29 8
43 12
25 7
31 9
45 14
41 13
44 14
38 3
12 1
50 5
39 4
39 4
19 2
26 3
42 5
33 4
38 5
33 13
15 6
24 10
31 13
26 11
43 19
22 10
46 21
28 13
45 22
22 3
29 5
28 5
21 4
31 6
32 7
13 3
28 7
48 12
48 12
48 16
3 1
17 6
44 16
30 11
19 7
42 16
47 18
44 17
44 17
